50
    39     5    42    59    89    20    34    75    45    34    87    33    46    91    11    11    99    31    33    31    74    82    93    52     7    61    50    78     2    79    74    50    27    37    56    51    15    23    98     5    65    21    21    75    43     2    60    67    79    28
     2     1     3     4     5     6     3     4     1     1     1     9     5     8     4     1     2     6     3     2     7     1     4     1     3     8     6     5     4     8     5     6     5     9     1     6     8     5     7     1     6     1     2     7     2     4     1     5     8     3
   550   310   363   537   569   532   486   265   258   575   421   465   599   622   329   680   516   485   382   550   358   479   541   573   359   636   568   713   293   629   284   691   329   413   538   499   683   630   591   692   563   382   524   514   689   502   536   578   320   374
